p cnf 306 1113
c t mc
4 2 0
4 -3 0
-2 3 -4 0
-5 1 0
-5 4 0
-1 -4 5 0
-8 6 0
-8 -7 0
-6 7 8 0
3 -8 -9 0
-3 8 -9 0
3 8 9 0
-3 -8 9 0
-5 9 -10 0
5 -9 -10 0
-5 -9 10 0
5 9 10 0
11 -10 0
11 -8 0
10 8 -11 0
15 -13 0
15 14 0
13 -14 -15 0
-12 -15 -16 0
12 15 -16 0
-12 15 16 0
12 -15 16 0
17 11 0
17 -16 0
-11 16 -17 0
-18 -19 -20 0
18 19 -20 0
-18 19 20 0
18 -19 20 0
2 -20 -21 0
-2 20 -21 0
2 20 21 0
-2 -20 21 0
-21 -22 -23 0
21 22 -23 0
-21 22 23 0
21 -22 23 0
-24 -20 0
-24 -23 0
20 23 24 0
-25 21 0
-25 3 0
-21 -3 25 0
24 25 -26 0
-24 -25 -26 0
24 -25 26 0
-24 25 26 0
-27 -17 0
-27 26 0
17 -26 27 0
29 -28 0
29 -14 0
28 14 -29 0
-29 -30 -31 0
29 30 -31 0
-29 30 31 0
29 -30 31 0
33 7 0
33 32 0
-7 -32 -33 0
-34 32 0
-34 33 0
-32 -33 34 0
-34 -30 -35 0
34 30 -35 0
-34 30 35 0
34 -30 35 0
36 35 0
36 7 0
-35 -7 -36 0
-37 31 0
-37 36 0
-31 -36 37 0
12 -38 -39 0
-12 38 -39 0
12 38 39 0
-12 -38 39 0
39 32 -40 0
-39 -32 -40 0
39 -32 40 0
-39 32 40 0
41 37 0
41 -40 0
-37 40 -41 0
38 -42 -44 0
-38 42 -44 0
38 42 44 0
-38 -42 44 0
43 44 -45 0
-43 -44 -45 0
43 -44 45 0
-43 44 45 0
42 45 -46 0
-42 -45 -46 0
42 -45 46 0
-42 45 46 0
31 47 -48 0
-31 -47 -48 0
31 -47 48 0
-31 47 48 0
48 -49 -50 0
-48 49 -50 0
48 49 50 0
-48 -49 50 0
-51 50 0
-51 42 0
-50 -42 51 0
53 19 0
53 -52 0
-19 52 -53 0
55 -53 0
55 -54 0
53 54 -55 0
56 -51 0
56 -55 0
51 55 -56 0
57 -28 0
57 -30 0
28 30 -57 0
-58 -31 0
-58 -32 0
31 32 58 0
-59 58 0
-59 -32 0
-58 32 59 0
-6 60 -61 0
6 -60 -61 0
-6 -60 61 0
6 60 61 0
63 -61 0
63 -62 0
61 62 -63 0
-64 -59 0
-64 63 0
59 -63 64 0
57 64 -65 0
-57 -64 -65 0
57 -64 65 0
-57 64 65 0
66 -30 0
66 -65 0
30 65 -66 0
-67 14 0
-67 66 0
-14 -66 67 0
-68 -56 0
-68 67 0
56 -67 68 0
22 -69 -70 0
-22 69 -70 0
22 69 70 0
-22 -69 70 0
72 70 0
72 71 0
-70 -71 -72 0
-74 -42 0
-74 73 0
42 -73 74 0
-35 74 -75 0
35 -74 -75 0
-35 -74 75 0
35 74 75 0
72 75 -76 0
-72 -75 -76 0
72 -75 76 0
-72 75 76 0
-77 -68 0
-77 -76 0
68 76 77 0
78 -28 0
78 -14 0
28 14 -78 0
33 -38 -79 0
-33 38 -79 0
33 38 79 0
-33 -38 79 0
81 -80 0
81 -32 0
80 32 -81 0
-82 79 0
-82 81 0
-79 -81 82 0
83 -78 0
83 82 0
78 -82 -83 0
-84 -83 0
-84 -83 0
83 84 0
85 84 0
85 23 0
-84 -23 -85 0
87 -70 0
87 86 0
70 -86 -87 0
-88 87 0
-88 18 0
-87 -18 88 0
-89 -60 0
-89 -6 0
60 6 89 0
-44 -89 -90 0
44 89 -90 0
-44 89 90 0
44 -89 90 0
-88 90 -91 0
88 -90 -91 0
-88 -90 91 0
88 90 91 0
-59 91 -92 0
59 -91 -92 0
-59 -91 92 0
59 91 92 0
-93 92 0
-93 69 0
-92 -69 93 0
94 -85 0
94 93 0
85 -93 -94 0
-96 61 0
-96 -95 0
-61 95 96 0
97 96 0
97 63 0
-96 -63 -97 0
-98 8 0
-98 97 0
-8 -97 98 0
99 94 0
99 98 0
-94 -98 -99 0
77 99 -100 0
-77 -99 -100 0
77 -99 100 0
-77 99 100 0
101 -46 0
101 -100 0
46 100 -101 0
102 -41 0
102 101 0
41 -101 -102 0
-103 -27 0
-103 -102 0
27 102 103 0
-104 6 0
-104 -43 0
-6 43 104 0
106 -86 0
106 105 0
86 -105 -106 0
107 106 0
107 4 0
-106 -4 -107 0
108 104 0
108 -107 0
-104 107 -108 0
-53 78 -109 0
53 -78 -109 0
-53 -78 109 0
53 78 109 0
-110 108 0
-110 -109 0
-108 109 110 0
-111 83 0
-111 -74 0
-83 74 111 0
44 -38 -112 0
-44 38 -112 0
44 38 112 0
-44 -38 112 0
113 112 0
113 33 0
-112 -33 -113 0
114 111 0
114 113 0
-111 -113 -114 0
-31 -80 -115 0
31 80 -115 0
-31 80 115 0
31 -80 115 0
114 115 -116 0
-114 -115 -116 0
114 -115 116 0
-114 115 116 0
-117 -88 0
-117 -64 0
88 64 117 0
119 118 0
119 -43 0
-118 43 -119 0
118 120 -121 0
-118 -120 -121 0
118 -120 121 0
-118 120 121 0
122 119 0
122 121 0
-119 -121 -122 0
117 122 -123 0
-117 -122 -123 0
117 -122 123 0
-117 122 123 0
-124 18 0
-124 47 0
-18 -47 124 0
18 124 -125 0
-18 -124 -125 0
18 -124 125 0
-18 124 125 0
-123 -125 -126 0
123 125 -126 0
-123 125 126 0
123 -125 126 0
127 -116 0
127 126 0
116 -126 -127 0
-128 31 0
-128 -60 0
-31 60 128 0
124 -58 -129 0
-124 58 -129 0
124 58 129 0
-124 -58 129 0
128 -129 -130 0
-128 129 -130 0
128 129 130 0
-128 -129 130 0
-127 130 -131 0
127 -130 -131 0
-127 -130 131 0
127 130 131 0
132 -87 0
132 -19 0
87 19 -132 0
133 60 0
133 64 0
-60 -64 -133 0
134 -132 0
134 133 0
132 -133 -134 0
-135 18 0
-135 -73 0
-18 73 135 0
-33 43 -136 0
33 -43 -136 0
-33 -43 136 0
33 43 136 0
-137 136 0
-137 3 0
-136 -3 137 0
138 -135 0
138 -137 0
135 137 -138 0
139 74 0
139 -105 0
-74 105 -139 0
139 -138 -140 0
-139 138 -140 0
139 138 140 0
-139 -138 140 0
-141 138 0
-141 140 0
-138 -140 141 0
142 -60 0
142 18 0
60 -18 -142 0
-142 -43 -143 0
142 43 -143 0
-142 43 143 0
142 -43 143 0
-73 7 -144 0
73 -7 -144 0
-73 -7 144 0
73 7 144 0
-145 143 0
-145 -144 0
-143 144 145 0
146 141 0
146 145 0
-141 -145 -146 0
-147 134 0
-147 -146 0
-134 146 147 0
-148 -52 0
-148 86 0
52 -86 148 0
-149 -148 0
-149 95 0
148 -95 149 0
150 -149 0
150 -43 0
149 43 -150 0
142 150 -151 0
-142 -150 -151 0
142 -150 151 0
-142 150 151 0
-152 -145 0
-152 -30 0
145 30 152 0
-39 -144 -153 0
39 144 -153 0
-39 144 153 0
39 -144 153 0
154 -152 0
154 -153 0
152 153 -154 0
-29 -12 -155 0
29 12 -155 0
-29 12 155 0
29 -12 155 0
-154 -155 -156 0
154 155 -156 0
-154 155 156 0
154 -155 156 0
-157 -151 0
-157 156 0
151 -156 157 0
-158 -147 0
-158 157 0
147 -157 158 0
-131 -158 -159 0
131 158 -159 0
-131 158 159 0
131 -158 159 0
-160 30 0
-160 -61 0
-30 61 160 0
112 38 -161 0
-112 -38 -161 0
112 -38 161 0
-112 38 161 0
-162 43 0
-162 -28 0
-43 28 162 0
-163 162 0
-163 36 0
-162 -36 163 0
164 163 0
164 -139 0
-163 139 -164 0
165 9 0
165 -164 0
-9 164 -165 0
166 -161 0
166 -165 0
161 165 -166 0
160 -166 -167 0
-160 166 -167 0
160 166 167 0
-160 -166 167 0
-96 -42 -168 0
96 42 -168 0
-96 42 168 0
96 -42 168 0
120 -168 -169 0
-120 168 -169 0
120 168 169 0
-120 -168 169 0
-170 169 0
-170 -135 0
-169 135 170 0
-171 -170 0
-171 80 0
170 -80 171 0
-172 73 0
-172 -171 0
-73 171 172 0
173 50 0
173 -5 0
-50 5 -173 0
-172 173 -174 0
172 -173 -174 0
-172 -173 174 0
172 173 174 0
-167 -174 -175 0
167 174 -175 0
-167 174 175 0
167 -174 175 0
52 -119 -176 0
-52 119 -176 0
52 119 176 0
-52 -119 176 0
44 -34 -177 0
-44 34 -177 0
44 34 177 0
-44 -34 177 0
177 52 -178 0
-177 -52 -178 0
177 -52 178 0
-177 52 178 0
176 178 -179 0
-176 -178 -179 0
176 -178 179 0
-176 178 179 0
-18 168 -181 0
18 -168 -181 0
-18 -168 181 0
18 168 181 0
-182 180 0
-182 -181 0
-180 181 182 0
183 179 0
183 182 0
-179 -182 -183 0
184 175 0
184 183 0
-175 -183 -184 0
185 60 0
185 -181 0
-60 181 -185 0
186 -185 0
186 -119 0
185 119 -186 0
-187 -82 0
-187 -186 0
82 186 187 0
187 -106 -188 0
-187 106 -188 0
187 106 188 0
-187 -106 188 0
-81 64 -189 0
81 -64 -189 0
-81 -64 189 0
81 64 189 0
-139 189 -190 0
139 -189 -190 0
-139 -189 190 0
139 189 190 0
-191 190 0
-191 19 0
-190 -19 191 0
192 191 0
192 64 0
-191 -64 -192 0
193 188 0
193 -192 0
-188 192 -193 0
164 106 -194 0
-164 -106 -194 0
164 -106 194 0
-164 106 194 0
-195 193 0
-195 194 0
-193 -194 195 0
196 -184 0
196 195 0
184 -195 -196 0
197 159 0
197 196 0
-159 -196 -197 0
-110 -197 -198 0
110 197 -198 0
-110 197 198 0
110 -197 198 0
199 103 0
199 198 0
-103 -198 -199 0
-200 -142 0
-200 30 0
142 -30 200 0
-201 79 0
-201 -136 0
-79 136 201 0
-201 65 -202 0
201 -65 -202 0
-201 -65 202 0
201 65 202 0
203 -69 0
203 61 0
69 -61 -203 0
202 -203 -204 0
-202 203 -204 0
202 203 204 0
-202 -203 204 0
-205 -200 0
-205 -204 0
200 204 205 0
206 60 0
206 48 0
-60 -48 -206 0
-206 -22 -207 0
206 22 -207 0
-206 22 207 0
206 -22 207 0
208 139 0
208 -12 0
-139 12 -208 0
-209 207 0
-209 -208 0
-207 208 209 0
33 164 -210 0
-33 -164 -210 0
33 -164 210 0
-33 164 210 0
209 -210 -211 0
-209 210 -211 0
209 210 211 0
-209 -210 211 0
212 117 0
212 -120 0
-117 120 -212 0
213 63 0
213 -168 0
-63 168 -213 0
214 118 0
214 -213 0
-118 213 -214 0
143 96 -215 0
-143 -96 -215 0
143 -96 215 0
-143 96 215 0
-216 215 0
-216 140 0
-215 -140 216 0
214 216 -217 0
-214 -216 -217 0
214 -216 217 0
-214 216 217 0
-218 -90 0
-218 -22 0
90 22 218 0
-218 38 -219 0
218 -38 -219 0
-218 -38 219 0
218 38 219 0
220 -219 0
220 -141 0
219 141 -220 0
-82 -143 -221 0
82 143 -221 0
-82 143 221 0
82 -143 221 0
222 -74 0
222 -43 0
74 43 -222 0
223 -222 0
223 -162 0
222 162 -223 0
-224 79 0
-224 223 0
-79 -223 224 0
-221 -224 -225 0
221 224 -225 0
-221 224 225 0
221 -224 225 0
226 220 0
226 -225 0
-220 225 -226 0
-227 217 0
-227 -226 0
-217 226 227 0
-228 168 0
-228 -52 0
-168 52 228 0
227 228 -229 0
-227 -228 -229 0
227 -228 229 0
-227 228 229 0
171 31 -230 0
-171 -31 -230 0
171 -31 230 0
-171 31 230 0
231 -229 0
231 230 0
229 -230 -231 0
-232 -212 0
-232 -231 0
212 231 232 0
-62 190 -233 0
62 -190 -233 0
-62 -190 233 0
62 190 233 0
81 -50 -234 0
-81 50 -234 0
81 50 234 0
-81 -50 234 0
-235 233 0
-235 234 0
-233 -234 235 0
236 92 0
236 190 0
-92 -190 -236 0
-237 -235 0
-237 -236 0
235 236 237 0
-232 -237 -238 0
232 237 -238 0
-232 237 238 0
232 -237 238 0
239 -211 0
239 -238 0
211 238 -239 0
-240 205 0
-240 -239 0
-205 239 240 0
-241 -60 0
-241 -28 0
60 28 241 0
242 -150 0
242 59 0
150 -59 -242 0
243 58 0
243 12 0
-58 -12 -243 0
242 -243 -244 0
-242 243 -244 0
242 243 244 0
-242 -243 244 0
241 244 -245 0
-241 -244 -245 0
241 -244 245 0
-241 244 245 0
19 90 -246 0
-19 -90 -246 0
19 -90 246 0
-19 90 246 0
247 -246 0
247 86 0
246 -86 -247 0
58 71 -248 0
-58 -71 -248 0
58 -71 248 0
-58 71 248 0
-249 248 0
-249 13 0
-248 -13 249 0
250 247 0
250 249 0
-247 -249 -250 0
251 -44 0
251 177 0
44 -177 -251 0
251 -206 -252 0
-251 206 -252 0
251 206 252 0
-251 -206 252 0
-250 -252 -253 0
250 252 -253 0
-250 252 253 0
250 -252 253 0
-254 245 0
-254 253 0
-245 -253 254 0
58 -124 -255 0
-58 124 -255 0
58 124 255 0
-58 -124 255 0
215 -2 -256 0
-215 2 -256 0
215 2 256 0
-215 -2 256 0
-256 50 -257 0
256 -50 -257 0
-256 -50 257 0
256 50 257 0
251 -257 -258 0
-251 257 -258 0
251 257 258 0
-251 -257 258 0
-36 -2 -259 0
36 2 -259 0
-36 2 259 0
36 -2 259 0
-260 -259 0
-260 44 0
259 -44 260 0
-261 258 0
-261 -260 0
-258 260 261 0
262 -255 0
262 261 0
255 -261 -262 0
-263 -91 0
-263 79 0
91 -79 263 0
-112 -83 -264 0
112 83 -264 0
-112 83 264 0
112 -83 264 0
-265 264 0
-265 -50 0
-264 50 265 0
-266 263 0
-266 -265 0
-263 265 266 0
-267 -58 0
-267 23 0
58 -23 267 0
-105 18 -268 0
105 -18 -268 0
-105 -18 268 0
105 18 268 0
-269 63 0
-269 -138 0
-63 138 269 0
-270 23 0
-270 -19 0
-23 19 270 0
-269 -270 -271 0
269 270 -271 0
-269 270 271 0
269 -270 271 0
-272 -268 0
-272 -271 0
268 271 272 0
-273 267 0
-273 272 0
-267 -272 273 0
-274 266 0
-274 -273 0
-266 273 274 0
-74 13 -275 0
74 -13 -275 0
-74 -13 275 0
74 13 275 0
-276 -11 0
-276 246 0
11 -246 276 0
-277 -97 0
-277 -14 0
97 14 277 0
278 -276 0
278 277 0
276 -277 -278 0
-279 119 0
-279 -148 0
-119 148 279 0
280 278 0
280 279 0
-278 -279 -280 0
281 275 0
281 -280 0
-275 280 -281 0
282 144 0
282 88 0
-144 -88 -282 0
-283 87 0
-283 282 0
-87 -282 283 0
-283 218 -284 0
283 -218 -284 0
-283 -218 284 0
283 218 284 0
281 284 -285 0
-281 -284 -285 0
281 -284 285 0
-281 284 285 0
-286 162 0
-286 -12 0
-162 12 286 0
-285 286 -287 0
285 -286 -287 0
-285 -286 287 0
285 286 287 0
-288 -274 0
-288 -287 0
274 287 288 0
-289 262 0
-289 -288 0
-262 288 289 0
254 289 -290 0
-254 -289 -290 0
254 -289 290 0
-254 289 290 0
-291 -240 0
-291 290 0
240 -290 291 0
199 291 -292 0
-199 -291 -292 0
199 -291 292 0
-199 291 292 0
-293 90 0
-293 14 0
-90 -14 293 0
89 -7 -294 0
-89 7 -294 0
89 7 294 0
-89 -7 294 0
295 246 0
295 -294 0
-246 294 -295 0
-296 -190 0
-296 295 0
190 -295 296 0
297 62 0
297 -96 0
-62 96 -297 0
-298 218 0
-298 -70 0
-218 70 298 0
-299 298 0
-299 -222 0
-298 222 299 0
300 50 0
300 -299 0
-50 299 -300 0
-301 -297 0
-301 300 0
297 -300 301 0
296 301 -302 0
-296 -301 -302 0
296 -301 302 0
-296 301 302 0
293 302 -303 0
-293 -302 -303 0
293 -302 303 0
-293 302 303 0
304 61 0
304 50 0
-61 -50 -304 0
305 303 0
305 304 0
-303 -304 -305 0
306 292 0
306 305 0
-292 -305 -306 0
-101 -232 175 -50 0
-270 52 233 121 162 0
-83 240 162 275 0
-298 -150 13 -139 278 213 -219 74 -167 0
-66 -10 -126 -148 -141 -13 -155 0
-291 -299 -24 256 164 -104 -194 0
158 -72 256 -223 29 -172 -19 -202 0
238 -212 143 113 -77 201 69 0
-125 211 -55 -242 117 -231 0
127 256 -141 -264 203 -181 -37 262 -282 0
145 197 -240 -93 0
290 -40 -126 -102 0
-94 247 -78 208 -251 65 -2 186 0
19 165 111 164 -80 -17 -71 174 0
262 -294 30 -265 126 -219 -300 116 -285 0
-243 146 -301 -285 -58 -40 83 133 0
-78 -220 235 117 -178 64 102 -55 0
76 -259 59 155 0
-1 125 109 -79 0
232 238 -108 -73 5 -161 -224 0
-87 64 49 197 -194 0
60 -145 -144 294 -266 142 -24 255 0
76 234 214 269 0
80 66 26 -143 274 -176 0
-4 -57 -287 -195 0
-147 -43 -172 47 86 -279 -135 0
-78 83 292 -289 -23 -298 261 -167 0
277 -120 -184 119 -126 -91 -156 -209 41 0
8 124 -106 109 -113 -39 -244 -121 16 0
302 304 -248 88 -146 -210 -223 0
-30 -37 -235 -272 128 218 -97 -168 0
-245 25 238 -143 65 -272 0
-281 190 175 55 183 -45 260 0
287 139 142 -44 -14 -283 -135 279 0
7 -76 201 41 69 163 0
-277 246 128 13 92 28 0
-177 142 -283 126 -139 21 164 0
234 240 -166 205 -111 189 0
265 -43 -101 179 -162 86 -100 0
105 -148 -131 15 -49 -66 0
80 -137 21 181 -50 139 -223 2 0
-256 8 41 -6 181 298 0
182 139 237 -278 163 -236 0
-292 96 110 200 0
-91 161 -77 -64 -172 -26 269 0
284 46 245 107 -99 0
168 172 121 82 -233 49 -59 0
67 241 -278 201 0
15 161 -48 157 20 -74 0
-200 45 99 -69 -177 -283 0
-46 199 -18 183 -213 57 208 -224 0
-200 -53 78 -122 -10 0
-141 109 -157 -304 0
39 -125 -150 -207 0
41 -85 91 -72 33 150 -25 0
109 175 196 28 5 0
-84 -185 265 267 0
247 40 -172 127 261 120 0
-190 44 201 -196 45 -219 -208 1 0
294 192 -269 275 65 71 221 -293 0
87 200 -39 -212 -90 235 94 -298 0
-23 -84 19 -276 -73 0
-295 87 113 -130 -52 -223 283 -100 284 0
88 132 -100 -8 238 99 -298 94 0
-172 152 146 -96 -49 -163 -24 -79 0
-110 -44 -302 -162 273 144 0
289 73 291 104 56 71 68 -34 0
132 -25 -245 -125 -279 243 64 0
-84 -79 119 -215 -245 159 -90 -222 -209 0
-111 132 -16 -24 86 -68 0
29 78 47 265 58 -270 297 0
129 -2 -272 124 -191 -49 139 0
-217 161 -265 -47 0
-52 96 -253 -263 102 -154 -57 46 -91 0
119 -216 101 25 -190 -130 258 -184 0
47 -254 40 225 -117 294 -135 -1 99 0
184 -40 -175 -6 87 179 -44 0
287 -23 -44 150 -151 260 0
-272 300 104 158 -164 224 -90 0
72 224 -185 180 50 37 0
198 87 282 200 -275 0
292 -157 59 -120 -14 -97 -28 0
-134 -44 209 -228 267 0
244 -195 -235 74 22 -217 -238 0
260 193 -301 213 143 0
-126 35 45 -192 142 53 287 -84 0
9 -56 -207 -42 -221 167 0
267 -179 4 201 60 162 0
284 11 -107 -241 -27 158 -136 0
-155 -216 238 147 0
176 -192 -23 -278 -110 -235 -5 19 0
63 237 47 206 240 56 90 -302 0
-261 179 -113 269 -67 206 244 0
216 -88 -298 227 66 -163 214 -215 -303 0
-113 305 -198 36 33 147 156 -142 -146 0
-6 -202 300 -32 23 0
-240 -244 -101 -143 286 0
-48 -305 174 265 153 160 0
-206 269 -142 -270 54 0
132 -208 -245 69 50 -184 1 240 0
-148 -274 -208 -64 156 -246 -220 130 -281 0
26 -244 102 -23 0
204 -18 -139 116 0
287 264 -107 -252 -127 257 -38 0
225 116 -63 259 50 172 186 56 0
261 -284 -152 -30 -286 79 0
264 167 -85 -266 0
-105 -178 -225 -230 -221 -170 173 0
-153 -46 -19 -184 0
130 37 62 -87 -271 -80 -21 0
-277 31 -51 -228 -157 0
-217 9 -299 121 0
-281 173 225 -110 288 -117 -214 -241 0
212 270 260 -117 -213 0
42 -133 -13 72 240 223 -86 -26 -289 0
143 -280 -301 -36 37 191 190 -277 0
220 -264 82 214 -187 20 182 -33 -69 0
-255 -217 23 295 0
-123 15 -91 26 0
31 57 -10 180 -12 240 84 0
-54 288 136 99 304 18 0
304 208 297 -167 0
-279 -247 303 64 0
231 111 224 -160 -238 139 -75 -130 6 0
-140 -177 -51 38 -134 0
-179 -281 88 152 0
34 -205 -238 247 160 114 169 -165 -214 0
-241 255 -55 -138 207 39 9 0
-292 -234 160 15 -240 63 48 -68 0
264 185 -223 291 184 112 164 0
218 190 297 226 51 -209 211 1 215 0
40 -93 235 -88 31 0
304 -119 -5 -191 39 -51 0
219 -196 -19 -184 -245 -140 -208 -207 0
55 -109 234 98 -154 -64 0
135 -161 -114 -288 -134 129 274 215 239 0
-84 -154 -269 -94 104 -147 25 0
102 98 94 -296 -141 172 0
179 -79 -237 -115 2 98 0
267 -2 35 166 0
161 -220 -284 25 0
-149 159 -110 -284 -216 0
196 290 80 -292 -215 -34 206 -246 0
-40 -267 -9 208 168 0
-123 -193 127 177 -99 168 196 0
-168 138 60 -91 0
-258 48 42 144 277 229 143 -88 -163 0
75 70 -49 248 100 212 0
-7 -177 -96 -51 208 -132 103 9 0
150 293 39 59 -259 0
-29 -289 -213 -192 211 -266 210 257 0
206 279 93 -212 -30 -154 0
87 254 89 -160 -280 -198 0
104 285 207 90 187 -263 -18 -131 22 0
-92 172 -288 -183 9 0
9 187 77 234 0
-65 52 290 101 -211 116 305 -103 0
-248 -106 -258 -195 -242 179 34 -274 0
-105 -204 -119 264 0
-96 -156 -138 167 -195 249 158 -276 0
-195 -128 -40 -47 0
97 -47 83 95 0
-26 -119 232 -195 164 35 -40 -15 -111 0
-193 271 -14 12 -90 50 -300 138 35 0
264 276 270 69 -105 -2 -96 0
-4 273 158 -119 183 96 90 -272 0
247 -171 -145 22 -252 120 -121 50 -241 0
-130 -8 -208 -228 -290 0
-161 -124 231 -245 0
251 -76 -215 55 -151 -166 69 0
-167 -17 -93 218 287 0
-32 2 -169 280 290 0
-15 -247 100 118 -287 94 -242 -273 0
30 256 43 -117 -262 0
124 -39 117 155 253 24 0
63 -73 135 221 178 0
-137 125 -261 191 -23 -245 58 -199 135 0
283 -96 56 -97 0
287 110 53 -33 -214 -251 -242 0
158 -94 195 61 -149 -138 274 0
-204 235 -23 -76 -46 121 0
-173 274 -284 106 -257 -265 -159 -70 0
128 -83 -193 238 0
148 -202 92 39 251 0
239 98 32 137 102 -74 -16 38 0
-287 144 -102 39 0
-292 -222 184 285 -63 93 -302 0
-176 -218 245 193 -194 0
-247 224 -8 94 0
-142 -84 53 -267 -149 204 156 -132 0
141 199 -177 109 6 0
224 17 -6 -52 -200 0
223 33 84 62 139 -271 0
306 0
